 C  N 
 1.0000000000000000
     3.8515697210686626    0.0000000000000002    0.0000000000000002
     0.0000000000000000    3.8515697210686626    0.0000000000000002
     0.0000000000000000    0.0000000000000000   18.1910220430518699
   C   N
   1   3
Cartesian
  1.9257848605343313  1.9257848605343315  7.5000000000000009
  0.0000000000000000  0.0000000000000000 10.3582915315105133
  0.0000000000000000  0.0000000000000000  4.6417084684894876
  0.0000000000000000  0.0000000000000000  7.5000000000000000
