mp-1009829_Be2Si                        
   1.00000000000000     
     3.7365268509900660    0.0000000000000000    0.0000000000000000
     1.8682634254950330    3.2359271748599219    0.0000000000000000
     1.8682634254950330    1.0786423916199739    3.0508613983816879
   Be   Si
     2     1
Direct
  0.7500000000000000  0.7500000000000000  0.7500000000000000
  0.2500000000000000  0.2500000000000000  0.2500000000000000
  0.0000000000000000  0.0000000000000000  0.0000000000000000
 
  0.00000000E+00  0.00000000E+00  0.00000000E+00
  0.00000000E+00  0.00000000E+00  0.00000000E+00
  0.00000000E+00  0.00000000E+00  0.00000000E+00
