Cu1
1.0
2.500000 2.500000 2.500000
2.500000 -2.500000 -2.500000
-2.500000 2.500000 -2.500000
Cu
1
direct
0.000000 0.000000 0.000000 Cu
